qe/outputs/qe/qe_queries_cbrdelay_obs_redo/T=5,eliminate=[I_0,I_1,I_2,I_3,I_4,C,B,lhs=Q_4].smt2
; benchmark generated from python API
(set-info :status unknown)
(declare-fun S_2 () Real)
(declare-fun L_2 () Real)
(declare-fun A_2 () Real)
(declare-fun L_0 () Real)
(declare-fun S_0 () Real)
(declare-fun A_0 () Real)
(declare-fun S_4 () Real)
(declare-fun L_3 () Real)
(declare-fun A_4 () Real)
(declare-fun S_1 () Real)
(declare-fun L_1 () Real)
(declare-fun S_3 () Real)
(declare-fun A_1 () Real)
(declare-fun A_3 () Real)
(assert
 (let (($x34 (>= L_0 0.0)))
 (let (($x26575 (<= (+ (* (- 1.0) A_2) (* (- 1.0) A_0) (* 2.0 S_1) L_2 L_0) (- 5.0))))
 (let (($x61 (= L_2 L_1)))
 (let (($x26196 (<= (+ (* (- 1.0) A_2) (* (/ 3.0 2.0) S_1) (* (- (/ 1.0 2.0)) S_0) L_2) (- 5.0))))
 (let (($x26341 (<= (+ (* (- 1.0) A_2) (* (/ 1.0 2.0) S_3) (* (/ 1.0 2.0) S_1) L_2) (- 5.0))))
 (let ((?x1739 (* (/ 2.0 3.0) S_1)))
 (let ((?x365 (* (- 1.0) A_2)))
 (let ((?x2939 (* (- (/ 1.0 3.0)) L_3)))
 (let ((?x1749 (* (/ 1.0 3.0) A_4)))
 (let ((?x1049 (* 3.0 L_2)))
 (let ((?x1034 (* (- 2.0) L_1)))
 (let ((?x905 (* 2.0 A_1)))
 (let ((?x1046 (* (- 3.0) A_2)))
 (let ((?x272 (* (- 1.0) L_3)))
 (let ((?x23504 (+ A_4 ?x272 ?x1046 ?x905 ?x1034 ?x1049)))
 (let (($x24383 (<= (+ (* (/ 1.0 2.0) A_4) (* (- (/ 1.0 2.0)) L_3) ?x365 (* (/ 1.0 2.0) S_0) L_2) (- 5.0))))
 (let (($x28618 (or $x61 (<= (+ ?x365 A_1 (* (- 1.0) L_1) L_2) (- 10.0)) (<= (+ ?x365 S_0 L_2) (- 15.0)))))
 (let (($x25097 (<= (+ (* (- 1.0) A_3) (* 2.0 S_1) (* (- 1.0) S_0) L_3) (- 5.0))))
 (let ((?x1533 (* (- (/ 1.0 2.0)) S_0)))
 (let ((?x1427 (* (/ 1.0 2.0) S_1)))
 (let ((?x255 (* (- 1.0) L_2)))
 (let ((?x368 (* (- 1.0) A_3)))
 (let (($x71 (= L_3 L_2)))
 (let (($x25154 (<= (+ ?x368 (* (- 2.0) A_0) (* 3.0 S_1) L_3 (* 2.0 L_0)) (- 5.0))))
 (let (($x26631 (or $x71 $x25154 (<= (+ ?x368 A_2 (* (- 1.0) A_0) ?x255 S_1 L_3 L_0) (- 5.0)))))
 (let ((?x13407 (* (- 5.0) L_2)))
 (let ((?x1061 (* (- 1.0) S_0)))
 (let ((?x8882 (* 5.0 A_2)))
 (let ((?x8988 (* (- 5.0) A_3)))
 (let ((?x2088 (* 4.0 L_3)))
 (let ((?x1055 (* (- 3.0) L_2)))
 (let ((?x343 (* (- 1.0) S_2)))
 (let ((?x1052 (* 3.0 A_2)))
 (let ((?x2371 (* (- 3.0) A_3)))
 (let ((?x2062 (* 2.0 L_3)))
 (let ((?x3334 (* (- 4.0) L_2)))
 (let ((?x337 (* (- 1.0) S_1)))
 (let ((?x3602 (* 4.0 A_2)))
 (let ((?x2087 (* (- 4.0) A_3)))
 (let ((?x2346 (* 3.0 L_3)))
 (let (($x18397 (not (<= 0.0 (+ L_1 ?x255)))))
 (let (($x45705 (or $x71 $x18397 (<= (+ A_4 ?x2088 ?x8988 ?x8882 ?x1061 (* (- 5.0) L_1)) 0.0))))
 (let ((?x12489 (* (- (/ 1.0 3.0)) L_1)))
 (let ((?x12492 (* (/ 1.0 3.0) A_1)))
 (let ((?x2944 (* (/ 1.0 3.0) L_3)))
 (let ((?x1757 (* (/ 2.0 3.0) A_4)))
 (let (($x24700 (<= (+ (* (/ 3.0 4.0) A_4) (* (/ 1.0 4.0) L_3) ?x368 (* (/ 1.0 4.0) S_0)) (- 5.0))))
 (let ((?x2027 (* (- 2.0) A_3)))
 (let ((?x24331 (+ A_4 L_3 ?x2027 A_2 ?x255)))
 (let (($x24332 (<= ?x24331 (- 10.0))))
 (let (($x26483 (or $x71 $x18397 (<= (+ A_4 ?x2062 ?x2371 ?x1052 ?x343 (* (- 3.0) L_1)) 0.0))))
 (let (($x17930 (<= (+ ?x2027 (* 2.0 A_2) S_3 ?x343 (* (- 2.0) L_2) ?x2062) 0.0)))
 (let (($x46348 (or $x71 (<= (+ A_4 ?x2062 ?x2371 ?x1052 (* (- 1.0) A_1) L_1 ?x1055) 0.0))))
 (let (($x46752 (or $x71 (<= (+ A_4 ?x2346 ?x2087 ?x3602 (* (- 1.0) A_0) ?x3334 L_0) 0.0))))
 (let (($x26334 (or $x71 (<= (+ ?x368 (* (- 1.0) A_1) L_1 (* 2.0 S_2) L_3) (- 5.0)))))
 (let (($x24885 (<= (+ ?x368 (* (- (/ 1.0 2.0)) A_0) (* (/ 3.0 2.0) S_2) L_3 (* (/ 1.0 2.0) L_0)) (- 5.0))))
 (let ((?x1041 (* (- 2.0) L_2)))
 (let ((?x1085 (* (- 1.0) A_0)))
 (let ((?x1038 (* 2.0 A_2)))
 (let (($x47250 (or $x61 (<= (+ A_4 ?x368 ?x365 A_1 (* (- 1.0) L_1) L_2) (- 5.0)) (<= (+ (* 2.0 A_4) ?x2027 ?x365 S_0 L_2) (- 5.0)))))
 (let (($x27593 (or $x71 (<= (+ ?x368 A_2 (* (- 1.0) A_1) L_3 S_2 L_1 ?x255) 0.0))))
 (let (($x47232 (or $x71 (<= (+ ?x2027 ?x1038 (* (- 1.0) A_1) S_3 L_1 ?x1041 ?x2062) 0.0))))
 (let (($x46855 (or $x61 (<= (+ A_3 (* (- 2.0) A_2) S_1 (* 2.0 L_2) ?x272) (- 5.0)))))
 (let ((?x1035 (* 2.0 L_2)))
 (let ((?x238 (* (- 1.0) L_1)))
 (let ((?x984 (* (- 2.0) A_2)))
 (let ((?x1066 (+ ?x984 A_1 S_3 ?x238 ?x1035)))
 (let (($x26173 (or $x61 (<= (+ ?x365 (* (/ 2.0 3.0) S_3) (* (/ 1.0 3.0) S_0) L_2) (- 5.0)) (<= ?x1066 (- 10.0)))))
 (let (($x14057 (<= (+ ?x368 A_2 (* (/ 1.0 2.0) S_2) (* (- (/ 1.0 2.0)) S_1) ?x238 L_3) 0.0)))
 (let (($x26160 (or $x71 (<= (+ ?x368 (* (/ 3.0 2.0) S_2) (* (- (/ 1.0 2.0)) S_1) L_3) (- 5.0)))))
 (let (($x26142 (or $x71 (<= (+ ?x368 (* (/ 4.0 3.0) S_2) (* (- (/ 1.0 3.0)) S_0) L_3) (- 5.0)))))
 (let (($x6786 (<= (+ A_1 ?x343 ?x238) 0.0)))
 (let ((?x1582 (* (- 2.0) L_3)))
 (let ((?x350 (* (- 1.0) S_3)))
 (let ((?x2038 (* 2.0 A_3)))
 (let (($x29795 (or $x61 (<= (+ ?x2038 ?x984 ?x350 S_0 ?x1035 ?x1582) 0.0) (<= (+ A_3 ?x365 A_1 ?x350 ?x272 ?x238 L_2) 0.0))))
 (let (($x23304 (<= (+ A_4 ?x368 (* (- (/ 1.0 2.0)) S_3) (* (/ 1.0 2.0) S_0)) 0.0)))
 (let (($x658 (<= (+ A_2 ?x350 ?x255) 0.0)))
 (let (($x47291 (or $x658 $x23304 (<= (+ A_4 ?x368 A_1 ?x350 (* (- 1.0) L_0)) 0.0))))
 (let (($x29744 (or $x61 (<= (+ ?x2038 ?x1046 S_0 ?x1049 ?x1582) (- 5.0)) (<= (+ A_3 ?x984 A_1 ?x272 ?x238 ?x1035) (- 5.0)))))
 (let ((?x12457 (* (- (/ 4.0 3.0)) L_1)))
 (let ((?x1957 (* (- 2.0) S_3)))
 (let ((?x12456 (* (/ 4.0 3.0) A_1)))
 (let ((?x2542 (* (- (/ 2.0 3.0)) L_3)))
 (let (($x25526 (or $x658 (<= (+ A_4 ?x272 ?x1957 S_0) 0.0) (<= (+ ?x1757 ?x2542 ?x12456 ?x1957 ?x12457) 0.0))))
 (let (($x1051 (<= (+ ?x1046 (* 3.0 A_1) S_3 ?x337 (* (- 3.0) L_1) ?x1049) 0.0)))
 (let ((?x1063 (* 4.0 L_2)))
 (let ((?x1062 (* (- 4.0) L_1)))
 (let ((?x1060 (* 4.0 A_1)))
 (let ((?x1059 (* (- 4.0) A_2)))
 (let ((?x1048 (* (- 3.0) L_1)))
 (let ((?x1351 (* (- 2.0) S_1)))
 (let ((?x2189 (* 2.0 S_3)))
 (let ((?x1047 (* 3.0 A_1)))
 (let (($x5812 (<= (+ ?x368 A_2 A_1 ?x255 ?x337 ?x238 L_3) 0.0)))
 (let ((?x3335 (* (/ 1.0 2.0) L_2)))
 (let ((?x3347 (* (- (/ 1.0 2.0)) A_2)))
 (let ((?x2068 (* (- (/ 1.0 2.0)) L_3)))
 (let ((?x5631 (* (/ 1.0 2.0) A_4)))
 (let (($x51 (= L_1 L_0)))
 (let (($x25229 (or $x51 (<= (+ ?x365 (* (- 1.0) A_1) S_3 L_2 S_0 L_1) (- 5.0)))))
 (let ((?x5738 (* (/ 3.0 4.0) S_0)))
 (let ((?x363 (* (- 1.0) A_1)))
 (let ((?x23609 (* (- (/ 1.0 4.0)) L_3)))
 (let ((?x5736 (* (/ 1.0 4.0) A_4)))
 (let ((?x1628 (* (/ 3.0 2.0) L_3)))
 (let ((?x2049 (* (- (/ 3.0 2.0)) L_1)))
 (let ((?x2048 (* (/ 3.0 2.0) A_1)))
 (let ((?x2051 (* (- (/ 3.0 2.0)) A_3)))
 (let (($x4778 (<= (+ ?x2051 ?x2048 S_2 ?x1061 ?x2049 ?x1628) 0.0)))
 (let ((?x5420 (* (- (/ 5.0 2.0)) L_1)))
 (let ((?x5419 (* (/ 5.0 2.0) A_1)))
 (let ((?x5417 (* (- (/ 5.0 2.0)) A_3)))
 (let (($x23531 (<= (+ A_4 ?x1628 ?x5417 ?x5419 ?x1061 ?x5420) 0.0)))
 (let (($x6751 (<= (+ ?x368 A_2 A_1 ?x1085 ?x255 ?x238 L_3 L_0) 0.0)))
 (let (($x46322 (or $x71 $x5812 (<= (+ (* 2.0 A_4) ?x2062 ?x2087 ?x1060 ?x1351 ?x1062) 0.0))))
 (let ((?x2074 (* (/ 1.0 2.0) L_3)))
 (let ((?x2067 (* (/ 1.0 2.0) L_1)))
 (let ((?x2066 (* (- (/ 1.0 2.0)) A_1)))
 (let ((?x2071 (* (- (/ 1.0 2.0)) A_3)))
 (let ((?x3305 (* 5.0 L_2)))
 (let ((?x2993 (* (- 5.0) L_1)))
 (let ((?x3499 (* 5.0 A_1)))
 (let ((?x3504 (* (- 5.0) A_2)))
 (let (($x45767 (or $x51 (<= (+ ?x363 (* (/ 1.0 3.0) S_3) (* (/ 2.0 3.0) S_0) L_1) (- 5.0)))))
 (let (($x24603 (<= (+ ?x2027 ?x1038 A_1 ?x1041 ?x1061 ?x238 ?x2062) (- 5.0))))
 (let (($x12276 (<= (+ ?x368 A_1 S_1 ?x1061 ?x238 L_3) 0.0)))
 (let (($x8370 (<= (+ ?x2027 ?x1038 ?x905 ?x1041 ?x343 ?x1061 ?x1034 ?x2062) 0.0)))
 (let ((?x2097 (* 2.0 L_0)))
 (let ((?x2096 (* (- 2.0) A_0)))
 (let ((?x2085 (* 2.0 A_4)))
 (let (($x27427 (or $x71 $x6751 (<= (+ ?x368 A_1 ?x2096 (* 2.0 S_1) ?x238 L_3 ?x2097) 0.0))))
 (let (($x46224 (or $x51 (<= (+ (* (/ 1.0 2.0) A_3) ?x2066 ?x343 S_0 ?x2067 ?x2068) 0.0))))
 (let ((?x1724 (* (- (/ 1.0 2.0)) L_2)))
 (let ((?x2971 (* (/ 1.0 2.0) A_2)))
 (let (($x46665 (or $x71 (<= (+ A_4 ?x2074 ?x2051 ?x2048 ?x343 ?x2049) 0.0) (<= (+ ?x5631 ?x2074 ?x368 ?x2971 A_1 ?x1724 ?x343 ?x238) 0.0))))
 (let (($x47135 (or $x71 (<= (+ A_4 ?x2074 ?x2051 (* (/ 1.0 2.0) A_1) (* (- (/ 1.0 2.0)) L_1)) (- 5.0)) $x24332)))
 (let (($x18980 (<= (+ (* (/ 1.0 2.0) A_3) (* (- (/ 3.0 2.0)) A_1) S_0 (* (/ 3.0 2.0) L_1) ?x2068) (- 5.0))))
 (let (($x27277 (or $x51 $x658 (<= (+ A_3 ?x363 ?x1957 (* 2.0 S_1) L_1 ?x272) 0.0))))
 (let ((?x1040 (* 2.0 L_1)))
 (let ((?x2037 (* 2.0 S_0)))
 (let ((?x1039 (* (- 2.0) A_1)))
 (let (($x2232 (not $x71)))
 (let (($x46535 (or $x51 $x658 $x2232 (<= (+ A_3 ?x363 ?x1957 (* 2.0 S_1) L_1 ?x255) 0.0))))
 (let (($x46994 (or $x51 (<= (+ A_2 ?x363 (* (- (/ 1.0 2.0)) S_3) (* (/ 1.0 2.0) S_0)) 0.0) $x18397)))
 (let (($x6431 (<= (+ A_1 ?x350 ?x238) (- 5.0))))
 (let (($x46428 (or $x71 (<= (+ ?x2027 ?x905 ?x2096 (* 2.0 S_2) ?x1034 ?x2062 ?x2097) 0.0))))
 (let (($x23368 (or $x51 (<= (+ ?x363 (* (/ 1.0 2.0) S_2) (* (/ 1.0 2.0) S_0) L_1) (- 5.0)))))
 (let (($x825 (not $x51)))
 (let (($x46205 (or $x61 $x825 (<= (+ A_3 ?x984 A_1 ?x1035 ?x272 (* (- 1.0) L_0)) 0.0))))
 (let (($x108 (>= S_1 S_0)))
 (let (($x111 (>= S_2 S_1)))
 (let (($x114 (>= S_3 S_2)))
 (let (($x119 (>= A_1 A_0)))
 (let (($x120 (>= A_2 A_1)))
 (let (($x121 (>= A_3 A_2)))
 (let (($x122 (>= A_4 A_3)))
 (and (<= (+ A_4 ?x272) S_4) $x122 $x121 $x120 $x119 $x114 $x111 $x108 (or (not (<= 0.0 (+ ?x238 L_0))) $x51) (or $x71 (not (<= 0.0 (+ L_2 ?x272)))) (or $x61 (<= (+ ?x365 A_1 ?x238 L_2) (- 5.0))) (or $x51 $x61 $x71 (= (+ ?x368 ?x1038 ?x363 L_1 ?x1041 L_3) 0.0)) (or $x61 $x2232 (<= 0.0 (+ ?x368 ?x1038 ?x363 L_1 ?x255))) $x46205 (or $x51 (<= (+ ?x363 S_0 L_1) (- 10.0))) $x23368 (or $x61 (<= (+ ?x365 S_2 L_2) (- 5.0))) $x46428 (or $x71 (<= (+ ?x2027 ?x905 (* 2.0 S_2) ?x1351 ?x1034 ?x2062) 0.0)) (or $x71 $x658 $x4778) (or $x71 $x658 $x23531) (or $x71 $x658 (<= (+ ?x2085 ?x2027 ?x905 ?x1957 ?x1034) 0.0)) (or $x658 (<= (+ ?x350 S_1) (- 5.0))) (or $x658 (<= (+ ?x1749 ?x2939 ?x350 ?x1739) 0.0)) (or $x658 (<= (+ A_4 ?x368 ?x350 S_1) 0.0)) (or $x61 $x18397) (or $x51 (<= (+ ?x363 S_1 L_1) (- 5.0))) (<= (+ ?x368 S_3 L_3) 0.0) (or $x51 (<= (+ A_4 ?x368 ?x363 S_0 L_1) (- 5.0))) (or $x658 (<= (+ ?x1085 ?x350 (* 2.0 S_1) L_0) 0.0)) (or (<= (+ ?x343 S_0) (- 5.0)) $x6786) (or $x71 (<= (+ ?x368 S_3 L_3) (- 5.0))) (or $x51 (<= (+ A_2 ?x363 ?x343 S_0 L_1 ?x255) 0.0)) (or $x658 $x6431 (<= (+ (* (- (/ 1.0 2.0)) S_3) (* (/ 1.0 2.0) S_0)) (- 5.0))) (or $x61 (<= (+ ?x1059 ?x1060 S_3 ?x1061 ?x1062 ?x1063) 0.0)) (or $x71 (<= (+ ?x368 A_1 S_3 ?x343 ?x238 L_3) 0.0)) (or $x6786 (<= (+ ?x5736 ?x23609 ?x343 ?x5738) 0.0)) (or $x51 $x658 $x23304) (or $x51 (<= (+ A_2 ?x363 ?x350 S_1) 0.0) $x18397) $x46994 (or $x61 (<= (+ ?x1046 ?x1047 S_2 ?x1061 ?x1048 ?x1049) 0.0)) (or $x51 (<= (+ ?x1038 ?x1039 ?x350 S_0 ?x1040 ?x1041) 0.0)) (or $x51 (<= (+ A_2 ?x1039 S_0 ?x1040 ?x255) (- 5.0))) (or $x51 $x71 (<= 0.0 (+ A_3 ?x984 A_1 ?x272 ?x238 ?x1035))) (or $x61 (<= (+ A_3 ?x365 ?x350 S_1 L_2 ?x272) 0.0)) (or $x51 (<= (+ A_2 ?x363 ?x350 S_1 L_1 ?x255) 0.0)) $x46535 (or $x51 (<= (+ ?x2038 ?x1039 ?x1957 ?x2037 ?x1040 ?x1582) 0.0)) (or $x61 (<= (+ A_4 ?x272 ?x984 ?x905 ?x350 ?x1034 ?x1035) 0.0)) $x27277 (<= (+ ?x363 S_1 L_1) 0.0) (or $x71 $x658 $x12276) (or $x61 (<= (+ ?x365 A_1 ?x1085 S_1 ?x238 L_2 L_0) 0.0)) (or $x61 (<= (+ ?x984 ?x905 S_1 ?x1061 ?x1034 ?x1035) 0.0)) (or $x61 (<= (+ ?x984 ?x905 ?x1085 S_2 ?x1034 ?x1035 L_0) 0.0)) (or $x61 (<= ?x1066 (- 5.0))) (or $x61 (<= (+ ?x1046 ?x1047 ?x1085 S_3 ?x1048 ?x1049 L_0) 0.0)) (or $x61 (<= (+ ?x984 ?x905 S_2 ?x337 ?x1034 ?x1035) 0.0)) (or $x51 $x18980) (or $x51 (<= (+ A_3 ?x365 ?x363 L_2 S_0 L_1 ?x272) 0.0)) (or $x71 (<= (+ ?x5631 ?x2074 ?x368 (* (/ 1.0 2.0) S_2)) (- 5.0))) $x47135 (or $x51 (<= (+ ?x5631 ?x2068 ?x3347 ?x363 ?x3335 S_0 L_1) (- 5.0))) (or $x71 $x6751 (<= (+ ?x2371 ?x1047 ?x2096 ?x2189 ?x1048 ?x2346 ?x2097) 0.0)) (or $x71 $x6751 (<= (+ ?x2027 ?x905 S_3 ?x1061 ?x1034 ?x2062) 0.0)) $x46665 $x46224 (or $x658 (<= (+ ?x1957 (* 3.0 S_1) ?x1061) 0.0)) (or $x71 (<= (+ ?x368 A_2 ?x1427 ?x1533 ?x238 L_3) 0.0) $x18397) (or $x6786 (<= (+ A_4 ?x368 ?x343 S_0) 0.0)) (or (<= (+ (* (/ 1.0 3.0) S_3) ?x343 (* (/ 2.0 3.0) S_0)) 0.0) $x6786) (or $x71 (<= (+ ?x2027 ?x905 S_3 ?x1061 ?x1034 ?x2062) 0.0) $x24603) $x27427 (or $x71 $x6751 (<= (+ ?x2085 ?x2062 ?x2087 ?x1060 ?x2096 ?x1062 ?x2097) 0.0)) (or $x71 $x8370 (<= (+ ?x2027 ?x905 S_3 ?x1061 ?x1034 ?x2062) 0.0)) (or $x71 $x6751 $x23531) (or $x71 $x23531 $x24603) (or $x71 $x8370 $x23531) (or $x71 $x8370 $x12276) (or $x71 $x6751 $x12276) (or $x71 $x12276 $x24603) $x45767 (or $x61 (<= (+ A_4 ?x368 ?x365 A_1 ?x238 L_2) 0.0)) (or $x61 (<= (+ A_4 ?x272 ?x1059 ?x1060 ?x1085 ?x1062 ?x1063 L_0) 0.0)) (or $x61 (<= ?x23504 (- 5.0))) (or $x61 (<= (+ A_4 ?x272 ?x3504 ?x3499 ?x1061 ?x2993 ?x3305) 0.0)) (or $x51 $x71 (<= (+ ?x2071 ?x2066 S_2 ?x2067 ?x2074) (- 5.0))) $x46322 (or $x71 $x4778 $x6751) (or $x71 $x4778 $x24603) (or $x71 $x5812 $x23531) (or $x71 $x4778 $x5812) (or $x51 (<= (+ ?x5736 ?x23609 ?x363 ?x5738 L_1) (- 5.0))) $x25229 (or $x6786 (<= (+ ?x365 S_3 L_2 ?x343 S_0) 0.0)) (or $x6786 (<= (+ ?x5631 ?x2068 ?x3347 ?x3335 ?x343 S_0) 0.0)) (or $x61 (<= (+ A_4 ?x272 ?x1046 ?x1047 ?x343 ?x1048 ?x1049) 0.0)) (or $x61 (<= (+ ?x984 ?x905 S_3 ?x343 ?x1034 ?x1035) 0.0)) (or $x71 $x5812 (<= (+ ?x2027 ?x905 S_3 ?x1061 ?x1034 ?x2062) 0.0)) (or $x71 $x5812 (<= (+ ?x2371 ?x1047 ?x2189 ?x1351 ?x1048 ?x2346) 0.0)) (or $x61 (<= (+ A_4 ?x272 ?x1059 ?x1060 ?x337 ?x1062 ?x1063) 0.0)) (or $x61 $x1051) (or $x71 (<= (+ ?x368 A_2 ?x1085 S_1 ?x255 L_3 L_0) 0.0)) $x25526 (or $x71 (<= ?x24331 (- 5.0))) $x29744 (or $x71 (<= (+ A_4 L_3 ?x2027 ?x1038 ?x350 ?x1041) 0.0)) $x47291 $x29795 (or $x71 (<= (+ L_3 ?x368 A_2 ?x255 ?x1427 ?x1533) 0.0)) (or $x61 (<= (+ A_3 ?x365 ?x343 S_0 L_2 ?x272) 0.0) $x6786) $x26142 $x26160 (or $x71 $x14057 $x18397) (or $x71 (<= (+ ?x2371 ?x1052 S_2 ?x1061 ?x1055 ?x2346) 0.0)) (or $x71 (<= (+ ?x2027 ?x1038 S_2 ?x337 ?x1041 ?x2062) 0.0)) (or $x71 (<= (+ ?x2371 ?x1052 S_3 ?x337 ?x1055 ?x2346) 0.0)) $x26173 $x46855 $x47232 $x27593 (or $x71 (<= (+ ?x2371 ?x1052 ?x1085 S_3 ?x1055 ?x2346 L_0) 0.0)) $x47250 (or $x61 (<= (+ A_4 ?x368 ?x365 S_1 L_2) (- 5.0))) (or $x71 (<= (+ ?x2027 ?x1038 ?x1085 S_2 ?x1041 ?x2062 L_0) 0.0)) (or $x71 $x24885) (or $x71 (<= (+ ?x2087 ?x3602 S_3 ?x1061 ?x3334 ?x2088) 0.0)) $x26334 (or $x71 (<= (+ ?x1757 ?x2944 ?x368 (* (/ 1.0 3.0) S_1)) (- 5.0)) $x24332) $x46752 $x46348 (or $x71 $x17930) $x26483 (or $x71 $x24332 $x24700 (<= (+ ?x1757 ?x2944 ?x368 ?x12492 ?x12489) (- 5.0))) $x45705 (or $x71 (<= (+ A_4 ?x2346 ?x2087 ?x3602 ?x337 ?x3334) 0.0)) (or $x71 (<= (+ A_4 ?x2062 ?x2371 ?x1052 ?x343 ?x1055) 0.0)) (or $x71 (<= (+ A_4 ?x2088 ?x8988 ?x8882 ?x1061 ?x13407) 0.0)) $x26631 (or $x71 (<= (+ ?x368 A_2 ?x255 ?x1427 ?x1533 L_3) (- 5.0)) $x25097) (or $x61 (<= (+ ?x365 S_1 L_2) (- 10.0))) $x28618 (or $x61 $x24383 (<= ?x23504 (- 15.0))) (or $x61 (<= (+ ?x1749 ?x2939 ?x365 ?x1739 L_2) (- 5.0))) (or $x61 $x26341) (or $x61 $x26196) (or $x61 $x26575) $x34 (<= (+ (* (- 1.0) A_4) L_3 S_4) 0.0) (<= (+ ?x2096 ?x2037 ?x2097) 0.0) (<= (+ ?x365 L_2 S_2) 0.0))))))))))))))))))))))))))))))))))))))))))))))))))))))))))))))))))))))))))))))))))))))))))))))))))))))))))))))))))))))))))))))))))))))))))))))))))))))))))))))))
(check-sat)
